119 48 011 1
1
357 113 1
303 114 1
289 115 1
256 116 1
257 117 1
282 118 1
281 119 1
295 108 1
282 109 1
286 110 1
286 111 1
318 112 1
238 113 1
419 114 1
242 115 1
254 116 1
287 117 1
232 118 1
255 119 1
258 108 1
256 109 1
288 110 1
234 111 1
237 112 1
319 113 1
248 114 1
228 115 1
304 116 1
308 117 1
330 118 1
331 119 1
395 108 1
285 109 1
257 110 1
320 111 1
223 112 1
298 113 1
245 114 1
272 115 1
212 116 1
260 117 1
244 118 1
281 119 1
264 108 1
407 109 1
338 110 1
290 111 1
227 112 1
1
1
1
1
1
1
1
1
1
1
1
1
1
1
1
1
1
1
1
1
1
1
1
1
1
1
1
1
1
1
1
1
1
1
1
1
1
1
1
1
1
1
1
1
1
1
1
1
1
1
1
1
1
1
1
1
1
1
1 9 294 21 257 33 394 45 263
1 10 281 22 255 34 284 46 406
1 11 285 23 287 35 256 47 337
1 12 285 24 233 36 319 48 289
1 13 317 25 236 37 222 49 226
1 2 356 14 237 26 318 38 297
1 3 302 15 418 27 247 39 244
1 4 288 16 241 28 227 40 271
1 5 255 17 253 29 303 41 211
1 6 256 18 286 30 307 42 259
1 7 281 19 231 31 329 43 243
1 8 280 20 254 32 330 44 280
